30 1 6
259 209 983 591 591 3 430 756 311 199 998 298 175 426 759 294 943 241 852 558 370 475 491 827 319 563 551 683 19 382 
283 629 943 617 219 533 619 1000 641 930 550 990 579 724 415 689 17 357 929 869 267 650 695 757 477 365 319 379 47 689 
112 329 669 54 946 239 939 564 238 931 845 788 272 424 863 39 464 880 747 393 100 13 42 146 121 870 510 791 600 556 
831 64 236 851 469 181 89 759 97 327 689 941 466 313 716 328 351 180 559 97 924 10 462 317 155 934 539 664 725 490 
571 907 553 807 758 22 987 846 132 435 524 821 728 341 133 443 669 835 974 579 931 249 589 392 918 743 326 456 759 402 
297 329 660 850 135 417 223 474 615 354 908 490 526 635 831 10 430 499 844 755 429 127 356 17 870 273 760 547 80 870 
9480 3760 1980 9600 5770 6850 3760 1510 1580 3420 5050 4170 8320 3820 4040 6620 7440 1850 5120 5870 9390 9400 650 6460 3090 9350 9180 4200 4810 3490 
80010
